//Dat File

outFile="MPVSBPP_SET1_IT200_ITV2_NT2_TS3_WT1_VT1_REP9";
m=200;
o=126;
p=3;
numVTypes=3;

demand = [3, 1, 5, 11, 4, 8, 6, 11, 3, 7, 4, 7, 9, 8, 5, 1, 8, 5, 7, 1, 7, 8, 5, 5, 2, 2, 4, 7, 5, 10, 8, 11, 2, 8, 1, 3, 8, 9, 6, 6, 9, 1, 4, 7, 7, 6, 9, 7, 9, 6, 4, 2, 6, 10, 8, 2, 4, 5, 6, 4, 7, 9, 4, 3, 2, 5, 5, 3, 10, 3, 8, 10, 4, 9, 7, 9, 2, 8, 6, 8, 9, 10, 7, 4, 2, 7, 9, 10, 6, 8, 10, 11, 9, 3, 11, 1, 3, 8, 1, 7, 17, 14, 18, 12, 13, 12, 15, 13, 14, 19, 17, 14, 14, 13, 15, 14, 12, 14, 13, 14, 18, 13, 19, 16, 18, 14, 17, 15, 14, 19, 16, 16, 15, 15, 18, 15, 15, 12, 12, 13, 16, 12, 17, 13, 16, 18, 13, 14, 12, 15, 16, 16, 15, 19, 13, 12, 14, 14, 13, 13, 15, 16, 13, 17, 14, 18, 13, 17, 19, 16, 18, 18, 19, 12, 15, 18, 16, 17, 14, 16, 18, 17, 14, 14, 13, 18, 13, 18, 14, 12, 13, 12, 19, 12, 17, 18, 12, 15, 15, 15];
Depot_Cap = [30000, 30000, 30000];
Tarif = [10, 3, 7];
VeicVolume = [100, 150, 200];
VeicCost = [100, 120, 140];
VeicType = [1, 1, 1, 1, 1, 1, 1, 1, 1, 1, 1, 1, 1, 1, 1, 1, 1, 1, 1, 1, 1, 1, 1, 1, 1, 1, 1, 1, 1, 1, 1, 1, 1, 1, 1, 1, 1, 1, 1, 1, 1, 1, 2, 2, 2, 2, 2, 2, 2, 2, 2, 2, 2, 2, 2, 2, 2, 2, 2, 2, 2, 2, 2, 2, 2, 2, 2, 2, 2, 2, 2, 2, 2, 2, 2, 2, 2, 2, 2, 2, 2, 2, 2, 2, 3, 3, 3, 3, 3, 3, 3, 3, 3, 3, 3, 3, 3, 3, 3, 3, 3, 3, 3, 3, 3, 3, 3, 3, 3, 3, 3, 3, 3, 3, 3, 3, 3, 3, 3, 3, 3, 3, 3, 3, 3, 3];
Elect_vehicle = [[70, 100, 30], [70, 100, 30], [70, 100, 30], [70, 100, 30], [70, 100, 30], [70, 100, 30], [70, 100, 30], [70, 100, 30], [70, 100, 30], [70, 100, 30], [70, 100, 30], [70, 100, 30], [70, 100, 30], [70, 100, 30], [70, 100, 30], [70, 100, 30], [70, 100, 30], [70, 100, 30], [70, 100, 30], [70, 100, 30], [70, 100, 30], [70, 100, 30], [70, 100, 30], [70, 100, 30], [70, 100, 30], [70, 100, 30], [70, 100, 30], [70, 100, 30], [70, 100, 30], [70, 100, 30], [70, 100, 30], [70, 100, 30], [70, 100, 30], [70, 100, 30], [70, 100, 30], [70, 100, 30], [70, 100, 30], [70, 100, 30], [70, 100, 30], [70, 100, 30], [70, 100, 30], [70, 100, 30], [80, 120, 30], [80, 120, 30], [80, 120, 30], [80, 120, 30], [80, 120, 30], [80, 120, 30], [80, 120, 30], [80, 120, 30], [80, 120, 30], [80, 120, 30], [80, 120, 30], [80, 120, 30], [80, 120, 30], [80, 120, 30], [80, 120, 30], [80, 120, 30], [80, 120, 30], [80, 120, 30], [80, 120, 30], [80, 120, 30], [80, 120, 30], [80, 120, 30], [80, 120, 30], [80, 120, 30], [80, 120, 30], [80, 120, 30], [80, 120, 30], [80, 120, 30], [80, 120, 30], [80, 120, 30], [80, 120, 30], [80, 120, 30], [80, 120, 30], [80, 120, 30], [80, 120, 30], [80, 120, 30], [80, 120, 30], [80, 120, 30], [80, 120, 30], [80, 120, 30], [80, 120, 30], [80, 120, 30], [90, 140, 40], [90, 140, 40], [90, 140, 40], [90, 140, 40], [90, 140, 40], [90, 140, 40], [90, 140, 40], [90, 140, 40], [90, 140, 40], [90, 140, 40], [90, 140, 40], [90, 140, 40], [90, 140, 40], [90, 140, 40], [90, 140, 40], [90, 140, 40], [90, 140, 40], [90, 140, 40], [90, 140, 40], [90, 140, 40], [90, 140, 40], [90, 140, 40], [90, 140, 40], [90, 140, 40], [90, 140, 40], [90, 140, 40], [90, 140, 40], [90, 140, 40], [90, 140, 40], [90, 140, 40], [90, 140, 40], [90, 140, 40], [90, 140, 40], [90, 140, 40], [90, 140, 40], [90, 140, 40], [90, 140, 40], [90, 140, 40], [90, 140, 40], [90, 140, 40], [90, 140, 40], [90, 140, 40]];